(set-info :source |printed by MathSAT|)
(declare-fun a_1 () (Array Int Int))
(declare-fun .y.8 () (Array Int Int))
(declare-fun i_1 () Int)
(declare-fun .y.9 () Int)
(declare-fun S_1 () Int)
(declare-fun .y.10 () Int)
(declare-fun defval_1 () Int)
(declare-fun .y.11 () Int)
(declare-fun fixval_1 () Int)
(declare-fun .y.12 () Int)
(declare-fun .loc.7 () Bool)
(declare-fun .loc.13 () Bool)
(declare-fun val1 () Int)
(declare-fun val2 () Int)
(declare-fun val3 () Int)
(declare-fun i1_0 () Int)
(define-fun .def_8 () (Array Int Int) (! a_1 :next |.y.8|))
(define-fun .def_10 () Int (! i_1 :next |.y.9|))
(define-fun .def_12 () Int (! S_1 :next |.y.10|))
(define-fun .def_14 () Int (! defval_1 :next |.y.11|))
(define-fun .def_16 () Int (! fixval_1 :next |.y.12|))
(define-fun .def_18 () Bool (! .loc.7 :next |.loc.13|))
(define-fun .def_23 () Int (! val1 :next |.xtv.1|))
(define-fun .def_28 () Int (! val2 :next |.xtv.2|))
(define-fun .def_31 () Int (! val3 :next |.xtv.3|))
(define-fun .def_34 () Int (! i1_0 :next |.xtv.4|))
(define-fun .def_90 () Bool (= .def_10 1))
(define-fun .def_88 () Bool (= .def_16 10))
(define-fun .def_91 () Bool (and .def_88 .def_90))
(define-fun .def_85 () Bool (<= .def_12 0))
(define-fun .def_86 () Bool (not .def_85))
(define-fun .def_92 () Bool (and .def_86 .def_91))
(define-fun .def_84 () Bool (= .def_14 0))
(define-fun .def_93 () Bool (and .def_84 .def_92))
(define-fun .def_82 () Bool (! (not .def_18) :invar-property 0))
(define-fun .def_94 () Bool (! (and .def_82 .def_93) :init true))
(define-fun .def_77 () Int (select .def_8 .def_34))
(define-fun .def_78 () Bool (= .def_14 .def_77))
(define-fun .def_70 () Int (* (- 1) .def_34))
(define-fun .def_71 () Int (* 4 .def_12))
(define-fun .def_73 () Int (+ .def_71 .def_70))
(define-fun .def_74 () Bool (<= .def_73 0))
(define-fun .def_75 () Bool (not .def_74))
(define-fun .def_21 () Bool (<= .def_10 .def_12))
(define-fun .def_68 () Bool (not .def_21))
(define-fun .def_67 () Bool (<= 0 .def_34))
(define-fun .def_69 () Bool (and .def_67 .def_68))
(define-fun .def_76 () Bool (and .def_69 .def_75))
(define-fun .def_79 () Bool (and .def_76 .def_78))
(define-fun .def_80 () Bool (and .loc.13 .def_79))
(define-fun .def_64 () Bool (= .def_16 .y.12))
(define-fun .def_62 () Bool (= .def_14 .y.11))
(define-fun .def_60 () Bool (= .def_12 .y.10))
(define-fun .def_56 () Int (* (- 1) .y.9))
(define-fun .def_57 () Int (+ .def_10 .def_56))
(define-fun .def_58 () Bool (= .def_57 (- 1)))
(define-fun .def_26 () Int (* 4 .def_10))
(define-fun .def_49 () Int (+ .def_26 (- 1)))
(define-fun .def_30 () Int (+ .def_26 (- 2)))
(define-fun .def_33 () Int (+ .def_26 (- 3)))
(define-fun .def_36 () Int (+ .def_26 (- 4)))
(define-fun .def_37 () (Array Int Int) (store .def_8 .def_36 .def_34))
(define-fun .def_38 () (Array Int Int) (store .def_8 .def_36 .def_16))
(define-fun .def_39 () Bool (= .def_14 .def_34))
(define-fun .def_40 () (Array Int Int) (ite .def_39 .def_38 .def_37))
(define-fun .def_41 () (Array Int Int) (store .def_40 .def_33 .def_31))
(define-fun .def_42 () (Array Int Int) (store .def_40 .def_33 .def_16))
(define-fun .def_43 () Bool (= .def_14 .def_31))
(define-fun .def_44 () (Array Int Int) (ite .def_43 .def_42 .def_41))
(define-fun .def_45 () (Array Int Int) (store .def_44 .def_30 .def_28))
(define-fun .def_46 () (Array Int Int) (store .def_44 .def_30 .def_16))
(define-fun .def_47 () Bool (= .def_14 .def_28))
(define-fun .def_48 () (Array Int Int) (ite .def_47 .def_46 .def_45))
(define-fun .def_50 () (Array Int Int) (store .def_48 .def_49 .def_23))
(define-fun .def_51 () (Array Int Int) (store .def_48 .def_49 .def_16))
(define-fun .def_52 () Bool (= .def_14 .def_23))
(define-fun .def_53 () (Array Int Int) (ite .def_52 .def_51 .def_50))
(define-fun .def_54 () Bool (= .y.8 .def_53))
(define-fun .def_20 () Bool (not .loc.13))
(define-fun .def_22 () Bool (and .def_20 .def_21))
(define-fun .def_55 () Bool (and .def_22 .def_54))
(define-fun .def_59 () Bool (and .def_55 .def_58))
(define-fun .def_61 () Bool (and .def_59 .def_60))
(define-fun .def_63 () Bool (and .def_61 .def_62))
(define-fun .def_65 () Bool (and .def_63 .def_64))
(define-fun .def_81 () Bool (or .def_65 .def_80))
(define-fun .def_83 () Bool (! (and .def_81 .def_82) :trans true))
(assert true)
